p cnf 48 172
1 2 3 0
4 5 6 0
7 8 9 0
10 11 12 0
13 14 15 0
16 17 18 0
19 20 21 0
22 23 24 0
25 26 27 0
28 29 30 0
31 32 33 0
34 35 36 0
37 38 39 0
40 41 42 0
43 44 45 0
46 47 48 0
-1 -2 0
-1 -3 0
-2 -3 0
-4 -5 0
-4 -6 0
-5 -6 0
-7 -8 0
-7 -9 0
-8 -9 0
-10 -11 0
-10 -12 0
-11 -12 0
-13 -14 0
-13 -15 0
-14 -15 0
-16 -17 0
-16 -18 0
-17 -18 0
-19 -20 0
-19 -21 0
-20 -21 0
-22 -23 0
-22 -24 0
-23 -24 0
-25 -26 0
-25 -27 0
-26 -27 0
-28 -29 0
-28 -30 0
-29 -30 0
-31 -32 0
-31 -33 0
-32 -33 0
-34 -35 0
-34 -36 0
-35 -36 0
-37 -38 0
-37 -39 0
-38 -39 0
-40 -41 0
-40 -42 0
-41 -42 0
-43 -44 0
-43 -45 0
-44 -45 0
-46 -47 0
-46 -48 0
-47 -48 0
-1 -19 0
-2 -20 0
-3 -21 0
-1 -28 0
-2 -29 0
-3 -30 0
-1 -34 0
-2 -35 0
-3 -36 0
-1 -46 0
-2 -47 0
-3 -48 0
-4 -10 0
-5 -11 0
-6 -12 0
-4 -13 0
-5 -14 0
-6 -15 0
-4 -19 0
-5 -20 0
-6 -21 0
-4 -22 0
-5 -23 0
-6 -24 0
-4 -43 0
-5 -44 0
-6 -45 0
-4 -46 0
-5 -47 0
-6 -48 0
-7 -10 0
-8 -11 0
-9 -12 0
-7 -28 0
-8 -29 0
-9 -30 0
-7 -37 0
-8 -38 0
-9 -39 0
-10 -16 0
-11 -17 0
-12 -18 0
-10 -19 0
-11 -20 0
-12 -21 0
-10 -22 0
-11 -23 0
-12 -24 0
-13 -25 0
-14 -26 0
-15 -27 0
-16 -25 0
-17 -26 0
-18 -27 0
-16 -31 0
-17 -32 0
-18 -33 0
-16 -46 0
-17 -47 0
-18 -48 0
-19 -31 0
-20 -32 0
-21 -33 0
-19 -43 0
-20 -44 0
-21 -45 0
-22 -34 0
-23 -35 0
-24 -36 0
-22 -43 0
-23 -44 0
-24 -45 0
-22 -46 0
-23 -47 0
-24 -48 0
-25 -31 0
-26 -32 0
-27 -33 0
-25 -34 0
-26 -35 0
-27 -36 0
-25 -40 0
-26 -41 0
-27 -42 0
-25 -43 0
-26 -44 0
-27 -45 0
-28 -34 0
-29 -35 0
-30 -36 0
-31 -43 0
-32 -44 0
-33 -45 0
-34 -37 0
-35 -38 0
-36 -39 0
-34 -43 0
-35 -44 0
-36 -45 0
-37 -46 0
-38 -47 0
-39 -48 0
-40 -43 0
-41 -44 0
-42 -45 0
-43 -46 0
-44 -47 0
-45 -48 0
